$rem
    JOBTYPE             Force
    EXCHANGE            BHHLYP
    BASIS               6-31+G*
    UNRESTRICTED        True
    MAX_SCF_CYCLES      500
    SYM_IGNORE          True
    SCF_Algorithm       DIIS

    SPIN_FLIP           True
    SET_Iter            500

    MAX_CIS_CYCLES      500

