$molecule
0 1
C       0.0110735532    -0.0109483917     0.0000509020
C       0.0231751238    -1.5690366131     0.0076104210
C       1.5812805708    -1.5569419259     0.0061102585
C       1.5691790832     0.0011462899    -0.0014488761
F       2.1005930974     0.5365443556    -1.0923628938
F       2.1026841577     0.5471356457     1.0831754485
F       2.1229540480    -2.0841118548     1.0959864860
F       2.1210172902    -2.0946808434    -1.0795512354
F      -0.5082386463    -2.1044344374     1.0985246459
F      -0.5103302057    -2.1150262451    -1.0770136879
F      -0.5305996057     0.5162212154    -1.0898255972
F      -0.5286634666     0.5267908047     1.0857121286
$end

$rem
Jobtype		OPT
!EXCHANGE            HF
!CORRELATION         CI
EXCHANGE            BHHLYP !50% HF +  50% Becke88 exchange
BASIS               6-31+G*
UNRESTRICTED        True
MAX_SCF_CYCLES      500
SYM_IGNORE          True
SCF_Algorithm       DIIS
$end

@@@

$molecule
read
$end

$rem
Jobtype	FREQ
EXCHANGE            BHHLYP
BASIS               6-31+G*
$end
